language ESSENCE' 1.0
$ Minion SolverNodes: 156625
$ Minion SolverTotalTime: 98.7139
$ Minion SolverTimeOut: 0
$ Savile Row TotalTime: 55.932
letting numberOfTurningPoints be 18
letting states be [[[0, 0, 1, 1, 0, 0, 0], 
[0, 0, 0, 0, 0, 1, 0], 
[0, 0, 1, 0, 0, 0, 0], 
[0, 0, 0, 0, 1, 0, 0], 
[0, 0, 0, 0, 0, 0, 0], 
[0, 0, 0, 1, 0, 0, 0], 
[1, 1, 0, 0, 0, 0, 0]], 
[[1, 0, 1, 1, 0, 0, 0], 
[1, 0, 0, 0, 0, 1, 0], 
[1, 0, 1, 0, 0, 0, 0], 
[1, 0, 0, 0, 1, 0, 0], 
[1, 0, 0, 0, 0, 0, 0], 
[1, 0, 0, 1, 0, 0, 0], 
[1, 1, 0, 0, 0, 0, 0]], 
[[1, 1, 1, 1, 0, 0, 0], 
[1, 0, 0, 0, 0, 1, 0], 
[1, 0, 1, 0, 0, 0, 0], 
[1, 0, 0, 0, 1, 0, 0], 
[1, 0, 0, 0, 0, 0, 0], 
[1, 0, 0, 1, 0, 0, 0], 
[1, 1, 0, 0, 0, 0, 0]], 
[[1, 1, 1, 1, 0, 0, 0], 
[1, 1, 0, 0, 0, 1, 0], 
[1, 1, 1, 0, 0, 0, 0], 
[1, 1, 0, 0, 1, 0, 0], 
[1, 1, 0, 0, 0, 0, 0], 
[1, 1, 0, 1, 0, 0, 0], 
[1, 1, 0, 0, 0, 0, 0]], 
[[1, 1, 1, 1, 0, 0, 0], 
[1, 1, 0, 0, 0, 1, 0], 
[1, 1, 1, 0, 0, 0, 0], 
[1, 1, 0, 0, 1, 0, 0], 
[1, 1, 0, 0, 0, 0, 0], 
[1, 1, 1, 1, 0, 0, 0], 
[1, 1, 0, 0, 0, 0, 0]], 
[[1, 1, 1, 1, 0, 0, 0], 
[1, 1, 0, 0, 0, 1, 0], 
[1, 1, 1, 0, 0, 0, 0], 
[1, 1, 0, 0, 1, 0, 0], 
[1, 1, 0, 0, 0, 0, 0], 
[1, 1, 1, 1, 0, 0, 0], 
[1, 1, 1, 0, 0, 0, 0]], 
[[1, 1, 1, 1, 0, 0, 0], 
[1, 1, 0, 0, 0, 1, 0], 
[1, 1, 1, 0, 0, 0, 0], 
[1, 1, 0, 0, 1, 0, 0], 
[1, 1, 0, 0, 0, 0, 0], 
[1, 1, 1, 1, 0, 0, 0], 
[1, 1, 1, 1, 1, 1, 1]], 
[[1, 1, 1, 1, 0, 0, 1], 
[1, 1, 0, 0, 0, 1, 1], 
[1, 1, 1, 0, 0, 0, 1], 
[1, 1, 0, 0, 1, 0, 1], 
[1, 1, 0, 0, 0, 0, 1], 
[1, 1, 1, 1, 0, 0, 1], 
[1, 1, 1, 1, 1, 1, 1]], 
[[1, 1, 1, 1, 1, 1, 1], 
[1, 1, 0, 0, 0, 1, 1], 
[1, 1, 1, 0, 0, 0, 1], 
[1, 1, 0, 0, 1, 0, 1], 
[1, 1, 0, 0, 0, 0, 1], 
[1, 1, 1, 1, 0, 0, 1], 
[1, 1, 1, 1, 1, 1, 1]], 
[[1, 1, 1, 1, 1, 1, 1], 
[1, 1, 0, 0, 1, 1, 1], 
[1, 1, 1, 0, 1, 0, 1], 
[1, 1, 0, 0, 1, 0, 1], 
[1, 1, 0, 0, 0, 0, 1], 
[1, 1, 1, 1, 0, 0, 1], 
[1, 1, 1, 1, 1, 1, 1]], 
[[1, 1, 1, 1, 1, 1, 1], 
[1, 1, 0, 0, 1, 1, 1], 
[1, 1, 1, 0, 1, 1, 1], 
[1, 1, 0, 0, 1, 0, 1], 
[1, 1, 0, 0, 0, 0, 1], 
[1, 1, 1, 1, 0, 0, 1], 
[1, 1, 1, 1, 1, 1, 1]], 
[[1, 1, 1, 1, 1, 1, 1], 
[1, 1, 0, 0, 1, 1, 1], 
[1, 1, 1, 0, 1, 1, 1], 
[1, 1, 0, 0, 1, 1, 1], 
[1, 1, 0, 0, 0, 1, 1], 
[1, 1, 1, 1, 0, 1, 1], 
[1, 1, 1, 1, 1, 1, 1]], 
[[1, 1, 1, 1, 1, 1, 1], 
[1, 1, 0, 0, 1, 1, 1], 
[1, 1, 1, 0, 1, 1, 1], 
[1, 1, 0, 0, 1, 1, 1], 
[1, 1, 0, 0, 0, 1, 1], 
[1, 1, 1, 1, 1, 1, 1], 
[1, 1, 1, 1, 1, 1, 1]], 
[[1, 1, 1, 1, 1, 1, 1], 
[1, 1, 0, 0, 1, 1, 1], 
[1, 1, 1, 0, 1, 1, 1], 
[1, 1, 0, 0, 1, 1, 1], 
[1, 1, 0, 0, 1, 1, 1], 
[1, 1, 1, 1, 1, 1, 1], 
[1, 1, 1, 1, 1, 1, 1]], 
[[1, 1, 1, 1, 1, 1, 1], 
[1, 1, 0, 0, 1, 1, 1], 
[1, 1, 1, 0, 1, 1, 1], 
[1, 1, 0, 0, 1, 1, 1], 
[1, 1, 1, 1, 1, 1, 1], 
[1, 1, 1, 1, 1, 1, 1], 
[1, 1, 1, 1, 1, 1, 1]], 
[[1, 1, 1, 1, 1, 1, 1], 
[1, 1, 0, 0, 1, 1, 1], 
[1, 1, 1, 0, 1, 1, 1], 
[1, 1, 1, 0, 1, 1, 1], 
[1, 1, 1, 1, 1, 1, 1], 
[1, 1, 1, 1, 1, 1, 1], 
[1, 1, 1, 1, 1, 1, 1]], 
[[1, 1, 1, 1, 1, 1, 1], 
[1, 1, 0, 0, 1, 1, 1], 
[1, 1, 1, 0, 1, 1, 1], 
[1, 1, 1, 1, 1, 1, 1], 
[1, 1, 1, 1, 1, 1, 1], 
[1, 1, 1, 1, 1, 1, 1], 
[1, 1, 1, 1, 1, 1, 1]], 
[[1, 1, 1, 1, 1, 1, 1], 
[1, 1, 0, 1, 1, 1, 1], 
[1, 1, 1, 1, 1, 1, 1], 
[1, 1, 1, 1, 1, 1, 1], 
[1, 1, 1, 1, 1, 1, 1], 
[1, 1, 1, 1, 1, 1, 1], 
[1, 1, 1, 1, 1, 1, 1]], 
[[1, 1, 1, 1, 1, 1, 1], 
[1, 1, 1, 1, 1, 1, 1], 
[1, 1, 1, 1, 1, 1, 1], 
[1, 1, 1, 1, 1, 1, 1], 
[1, 1, 1, 1, 1, 1, 1], 
[1, 1, 1, 1, 1, 1, 1], 
[1, 1, 1, 1, 1, 1, 1]], 
[[1, 1, 1, 1, 1, 1, 1], 
[1, 1, 1, 1, 1, 1, 1], 
[1, 1, 1, 1, 1, 1, 1], 
[1, 1, 1, 1, 1, 1, 1], 
[1, 1, 1, 1, 1, 1, 1], 
[1, 1, 1, 1, 1, 1, 1], 
[1, 1, 1, 1, 1, 1, 1]], 
[[1, 1, 1, 1, 1, 1, 1], 
[1, 1, 1, 1, 1, 1, 1], 
[1, 1, 1, 1, 1, 1, 1], 
[1, 1, 1, 1, 1, 1, 1], 
[1, 1, 1, 1, 1, 1, 1], 
[1, 1, 1, 1, 1, 1, 1], 
[1, 1, 1, 1, 1, 1, 1]], 
[[1, 1, 1, 1, 1, 1, 1], 
[1, 1, 1, 1, 1, 1, 1], 
[1, 1, 1, 1, 1, 1, 1], 
[1, 1, 1, 1, 1, 1, 1], 
[1, 1, 1, 1, 1, 1, 1], 
[1, 1, 1, 1, 1, 1, 1], 
[1, 1, 1, 1, 1, 1, 1]], 
[[1, 1, 1, 1, 1, 1, 1], 
[1, 1, 1, 1, 1, 1, 1], 
[1, 1, 1, 1, 1, 1, 1], 
[1, 1, 1, 1, 1, 1, 1], 
[1, 1, 1, 1, 1, 1, 1], 
[1, 1, 1, 1, 1, 1, 1], 
[1, 1, 1, 1, 1, 1, 1]], 
[[1, 1, 1, 1, 1, 1, 1], 
[1, 1, 1, 1, 1, 1, 1], 
[1, 1, 1, 1, 1, 1, 1], 
[1, 1, 1, 1, 1, 1, 1], 
[1, 1, 1, 1, 1, 1, 1], 
[1, 1, 1, 1, 1, 1, 1], 
[1, 1, 1, 1, 1, 1, 1]], 
[[1, 1, 1, 1, 1, 1, 1], 
[1, 1, 1, 1, 1, 1, 1], 
[1, 1, 1, 1, 1, 1, 1], 
[1, 1, 1, 1, 1, 1, 1], 
[1, 1, 1, 1, 1, 1, 1], 
[1, 1, 1, 1, 1, 1, 1], 
[1, 1, 1, 1, 1, 1, 1]], 
[[1, 1, 1, 1, 1, 1, 1], 
[1, 1, 1, 1, 1, 1, 1], 
[1, 1, 1, 1, 1, 1, 1], 
[1, 1, 1, 1, 1, 1, 1], 
[1, 1, 1, 1, 1, 1, 1], 
[1, 1, 1, 1, 1, 1, 1], 
[1, 1, 1, 1, 1, 1, 1]], 
[[1, 1, 1, 1, 1, 1, 1], 
[1, 1, 1, 1, 1, 1, 1], 
[1, 1, 1, 1, 1, 1, 1], 
[1, 1, 1, 1, 1, 1, 1], 
[1, 1, 1, 1, 1, 1, 1], 
[1, 1, 1, 1, 1, 1, 1], 
[1, 1, 1, 1, 1, 1, 1]], 
[[1, 1, 1, 1, 1, 1, 1], 
[1, 1, 1, 1, 1, 1, 1], 
[1, 1, 1, 1, 1, 1, 1], 
[1, 1, 1, 1, 1, 1, 1], 
[1, 1, 1, 1, 1, 1, 1], 
[1, 1, 1, 1, 1, 1, 1], 
[1, 1, 1, 1, 1, 1, 1]], 
[[1, 1, 1, 1, 1, 1, 1], 
[1, 1, 1, 1, 1, 1, 1], 
[1, 1, 1, 1, 1, 1, 1], 
[1, 1, 1, 1, 1, 1, 1], 
[1, 1, 1, 1, 1, 1, 1], 
[1, 1, 1, 1, 1, 1, 1], 
[1, 1, 1, 1, 1, 1, 1]], 
[[1, 1, 1, 1, 1, 1, 1], 
[1, 1, 1, 1, 1, 1, 1], 
[1, 1, 1, 1, 1, 1, 1], 
[1, 1, 1, 1, 1, 1, 1], 
[1, 1, 1, 1, 1, 1, 1], 
[1, 1, 1, 1, 1, 1, 1], 
[1, 1, 1, 1, 1, 1, 1]], 
[[1, 1, 1, 1, 1, 1, 1], 
[1, 1, 1, 1, 1, 1, 1], 
[1, 1, 1, 1, 1, 1, 1], 
[1, 1, 1, 1, 1, 1, 1], 
[1, 1, 1, 1, 1, 1, 1], 
[1, 1, 1, 1, 1, 1, 1], 
[1, 1, 1, 1, 1, 1, 1]], 
[[1, 1, 1, 1, 1, 1, 1], 
[1, 1, 1, 1, 1, 1, 1], 
[1, 1, 1, 1, 1, 1, 1], 
[1, 1, 1, 1, 1, 1, 1], 
[1, 1, 1, 1, 1, 1, 1], 
[1, 1, 1, 1, 1, 1, 1], 
[1, 1, 1, 1, 1, 1, 1]], 
[[1, 1, 1, 1, 1, 1, 1], 
[1, 1, 1, 1, 1, 1, 1], 
[1, 1, 1, 1, 1, 1, 1], 
[1, 1, 1, 1, 1, 1, 1], 
[1, 1, 1, 1, 1, 1, 1], 
[1, 1, 1, 1, 1, 1, 1], 
[1, 1, 1, 1, 1, 1, 1]], 
[[1, 1, 1, 1, 1, 1, 1], 
[1, 1, 1, 1, 1, 1, 1], 
[1, 1, 1, 1, 1, 1, 1], 
[1, 1, 1, 1, 1, 1, 1], 
[1, 1, 1, 1, 1, 1, 1], 
[1, 1, 1, 1, 1, 1, 1], 
[1, 1, 1, 1, 1, 1, 1]], 
[[1, 1, 1, 1, 1, 1, 1], 
[1, 1, 1, 1, 1, 1, 1], 
[1, 1, 1, 1, 1, 1, 1], 
[1, 1, 1, 1, 1, 1, 1], 
[1, 1, 1, 1, 1, 1, 1], 
[1, 1, 1, 1, 1, 1, 1], 
[1, 1, 1, 1, 1, 1, 1]], 
[[1, 1, 1, 1, 1, 1, 1], 
[1, 1, 1, 1, 1, 1, 1], 
[1, 1, 1, 1, 1, 1, 1], 
[1, 1, 1, 1, 1, 1, 1], 
[1, 1, 1, 1, 1, 1, 1], 
[1, 1, 1, 1, 1, 1, 1], 
[1, 1, 1, 1, 1, 1, 1]], 
[[1, 1, 1, 1, 1, 1, 1], 
[1, 1, 1, 1, 1, 1, 1], 
[1, 1, 1, 1, 1, 1, 1], 
[1, 1, 1, 1, 1, 1, 1], 
[1, 1, 1, 1, 1, 1, 1], 
[1, 1, 1, 1, 1, 1, 1], 
[1, 1, 1, 1, 1, 1, 1]], 
[[1, 1, 1, 1, 1, 1, 1], 
[1, 1, 1, 1, 1, 1, 1], 
[1, 1, 1, 1, 1, 1, 1], 
[1, 1, 1, 1, 1, 1, 1], 
[1, 1, 1, 1, 1, 1, 1], 
[1, 1, 1, 1, 1, 1, 1], 
[1, 1, 1, 1, 1, 1, 1]], 
[[1, 1, 1, 1, 1, 1, 1], 
[1, 1, 1, 1, 1, 1, 1], 
[1, 1, 1, 1, 1, 1, 1], 
[1, 1, 1, 1, 1, 1, 1], 
[1, 1, 1, 1, 1, 1, 1], 
[1, 1, 1, 1, 1, 1, 1], 
[1, 1, 1, 1, 1, 1, 1]], 
[[1, 1, 1, 1, 1, 1, 1], 
[1, 1, 1, 1, 1, 1, 1], 
[1, 1, 1, 1, 1, 1, 1], 
[1, 1, 1, 1, 1, 1, 1], 
[1, 1, 1, 1, 1, 1, 1], 
[1, 1, 1, 1, 1, 1, 1], 
[1, 1, 1, 1, 1, 1, 1]], 
[[1, 1, 1, 1, 1, 1, 1], 
[1, 1, 1, 1, 1, 1, 1], 
[1, 1, 1, 1, 1, 1, 1], 
[1, 1, 1, 1, 1, 1, 1], 
[1, 1, 1, 1, 1, 1, 1], 
[1, 1, 1, 1, 1, 1, 1], 
[1, 1, 1, 1, 1, 1, 1]], 
[[1, 1, 1, 1, 1, 1, 1], 
[1, 1, 1, 1, 1, 1, 1], 
[1, 1, 1, 1, 1, 1, 1], 
[1, 1, 1, 1, 1, 1, 1], 
[1, 1, 1, 1, 1, 1, 1], 
[1, 1, 1, 1, 1, 1, 1], 
[1, 1, 1, 1, 1, 1, 1]], 
[[1, 1, 1, 1, 1, 1, 1], 
[1, 1, 1, 1, 1, 1, 1], 
[1, 1, 1, 1, 1, 1, 1], 
[1, 1, 1, 1, 1, 1, 1], 
[1, 1, 1, 1, 1, 1, 1], 
[1, 1, 1, 1, 1, 1, 1], 
[1, 1, 1, 1, 1, 1, 1]];int(0..42)]
letting turningPoints be [[7, 1], 
[1, 1], 
[1, 2], 
[6, 2], 
[6, 3], 
[7, 3], 
[7, 7], 
[1, 7], 
[1, 5], 
[3, 5], 
[3, 6], 
[6, 6], 
[6, 5], 
[5, 5], 
[5, 3], 
[4, 3], 
[4, 4], 
[2, 4], 
[2, 3], 
[0, 0], 
[0, 0], 
[0, 0], 
[0, 0], 
[0, 0], 
[0, 0], 
[0, 0], 
[0, 0], 
[0, 0], 
[0, 0], 
[0, 0], 
[0, 0], 
[0, 0], 
[0, 0], 
[0, 0], 
[0, 0], 
[0, 0], 
[0, 0], 
[0, 0], 
[0, 0], 
[0, 0], 
[0, 0], 
[0, 0], 
[0, 0];int(0..42)]
